<instance format="XCSP3" type="CSP">
  <variables>
    <array id="x" note="x is the adjacency matrix" size="[7][7]">
      <domain for="x[0][0] x[1][1] x[2][2] x[3][3] x[4][4] x[5][5] x[6][6]"> 0 </domain>
      <domain for="x[0][1..6] x[1][0] x[1][2..6] x[2][0..1] x[2][3..6] x[3][0..2] x[3][4..6] x[4][0..3] x[4][5..6] x[5][0..4] x[5][6] x[6][0..5]"> 0 1 </domain>
    </array>
    <array id="y" note="y[i] is the degree of the ith node" size="[7]"> 3 6 </array>
    <var id="s" note="s is the sum of all degrees"> 12 24 36 </var>
  </variables>
  <constraints>
    <group>
      <sum>
        <list> %... </list>
        <condition> (le,4) </condition>
      </sum>
      <args> x[0][1..3] x[1][2..3] x[2][3] </args>
      <args> x[0][1..2] x[0][4] x[1][2] x[1..2][4] </args>
      <args> x[0][1..2] x[0][5] x[1][2] x[1..2][5] </args>
      <args> x[0][1..2] x[0][6] x[1][2] x[1..2][6] </args>
      <args> x[0][1] x[0][3..4] x[1][3..4] x[3][4] </args>
      <args> x[0][1] x[0][3] x[0][5] x[1][3] x[1][5] x[3][5] </args>
      <args> x[0][1] x[0][3] x[0][6] x[1][3] x[1][6] x[3][6] </args>
      <args> x[0][1] x[0][4..5] x[1][4..5] x[4][5] </args>
      <args> x[0][1] x[0][4] x[0][6] x[1][4] x[1][6] x[4][6] </args>
      <args> x[0][1] x[0][5..6] x[1][5..6] x[5][6] </args>
      <args> x[0][2..4] x[2][3..4] x[3][4] </args>
      <args> x[0][2..3] x[0][5] x[2][3] x[2..3][5] </args>
      <args> x[0][2..3] x[0][6] x[2][3] x[2..3][6] </args>
      <args> x[0][2] x[0][4..5] x[2][4..5] x[4][5] </args>
      <args> x[0][2] x[0][4] x[0][6] x[2][4] x[2][6] x[4][6] </args>
      <args> x[0][2] x[0][5..6] x[2][5..6] x[5][6] </args>
      <args> x[0][3..5] x[3][4..5] x[4][5] </args>
      <args> x[0][3..4] x[0][6] x[3][4] x[3..4][6] </args>
      <args> x[0][3] x[0][5..6] x[3][5..6] x[5][6] </args>
      <args> x[0][4..6] x[4][5..6] x[5][6] </args>
      <args> x[1][2..4] x[2][3..4] x[3][4] </args>
      <args> x[1][2..3] x[1][5] x[2][3] x[2..3][5] </args>
      <args> x[1][2..3] x[1][6] x[2][3] x[2..3][6] </args>
      <args> x[1][2] x[1][4..5] x[2][4..5] x[4][5] </args>
      <args> x[1][2] x[1][4] x[1][6] x[2][4] x[2][6] x[4][6] </args>
      <args> x[1][2] x[1][5..6] x[2][5..6] x[5][6] </args>
      <args> x[1][3..5] x[3][4..5] x[4][5] </args>
      <args> x[1][3..4] x[1][6] x[3][4] x[3..4][6] </args>
      <args> x[1][3] x[1][5..6] x[3][5..6] x[5][6] </args>
      <args> x[1][4..6] x[4][5..6] x[5][6] </args>
      <args> x[2][3..5] x[3][4..5] x[4][5] </args>
      <args> x[2][3..4] x[2][6] x[3][4] x[3..4][6] </args>
      <args> x[2][3] x[2][5..6] x[3][5..6] x[5][6] </args>
      <args> x[2][4..6] x[4][5..6] x[5][6] </args>
      <args> x[3][4..6] x[4][5..6] x[5][6] </args>
    </group>
    <group>
      <intension> eq(%0,%1) </intension>
      <args> x[0][1] x[1][0] </args>
      <args> x[0][2] x[2][0] </args>
      <args> x[0][3] x[3][0] </args>
      <args> x[0][4] x[4][0] </args>
      <args> x[0][5] x[5][0] </args>
      <args> x[0][6] x[6][0] </args>
      <args> x[1][0] x[0][1] </args>
      <args> x[1][2] x[2][1] </args>
      <args> x[1][3] x[3][1] </args>
      <args> x[1][4] x[4][1] </args>
      <args> x[1][5] x[5][1] </args>
      <args> x[1][6] x[6][1] </args>
      <args> x[2][0] x[0][2] </args>
      <args> x[2][1] x[1][2] </args>
      <args> x[2][3] x[3][2] </args>
      <args> x[2][4] x[4][2] </args>
      <args> x[2][5] x[5][2] </args>
      <args> x[2][6] x[6][2] </args>
      <args> x[3][0] x[0][3] </args>
      <args> x[3][1] x[1][3] </args>
      <args> x[3][2] x[2][3] </args>
      <args> x[3][4] x[4][3] </args>
      <args> x[3][5] x[5][3] </args>
      <args> x[3][6] x[6][3] </args>
      <args> x[4][0] x[0][4] </args>
      <args> x[4][1] x[1][4] </args>
      <args> x[4][2] x[2][4] </args>
      <args> x[4][3] x[3][4] </args>
      <args> x[4][5] x[5][4] </args>
      <args> x[4][6] x[6][4] </args>
      <args> x[5][0] x[0][5] </args>
      <args> x[5][1] x[1][5] </args>
      <args> x[5][2] x[2][5] </args>
      <args> x[5][3] x[3][5] </args>
      <args> x[5][4] x[4][5] </args>
      <args> x[5][6] x[6][5] </args>
      <args> x[6][0] x[0][6] </args>
      <args> x[6][1] x[1][6] </args>
      <args> x[6][2] x[2][6] </args>
      <args> x[6][3] x[3][6] </args>
      <args> x[6][4] x[4][6] </args>
      <args> x[6][5] x[5][6] </args>
    </group>
    <block>
      <sum>
        <list> x[0][] </list>
        <condition> (eq,y[0]) </condition>
      </sum>
      <sum>
        <list> x[1][] </list>
        <condition> (eq,y[1]) </condition>
      </sum>
      <sum>
        <list> x[2][] </list>
        <condition> (eq,y[2]) </condition>
      </sum>
      <sum>
        <list> x[3][] </list>
        <condition> (eq,y[3]) </condition>
      </sum>
      <sum>
        <list> x[4][] </list>
        <condition> (eq,y[4]) </condition>
      </sum>
      <sum>
        <list> x[5][] </list>
        <condition> (eq,y[5]) </condition>
      </sum>
      <sum>
        <list> x[6][] </list>
        <condition> (eq,y[6]) </condition>
      </sum>
    </block>
    <sum>
      <list> y[] </list>
      <condition> (eq,s) </condition>
    </sum>
    <block class="symmetryBreaking">
      <lex>
        <list> x[0][] </list>
        <list> x[1][] </list>
        <list> x[2][] </list>
        <list> x[3][] </list>
        <list> x[4][] </list>
        <list> x[5][] </list>
        <list> x[6][] </list>
        <operator> le </operator>
      </lex>
      <ordered>
        <list> y[] </list>
        <operator> ge </operator>
      </ordered>
    </block>
  </constraints>
</instance>
